c Output_time 26.03.2020 18:15:13_+0100 1585242913254050847
c ** Program information **
c program_name                          "QBRG_debug"
c version                               "0.3.20"
c date                                  "25.3.2020"
c gid_id                                "673970833836058123f633335630c185360d632e"
c author                                "Oliver Kullmann"
c url                                   "https://github.com/OKullmann/oklibrary/blob/master/Satisfiability/Transformers/Generators/Random/QBRG.cpp"
c ** Machine information **
c machine_name                          "chyna-Lenovo-G50-70"
c bogomips                              3791.08
c ** Compilation information **
c compiler_version                      "g++ 7.5.0"
c compilation_date                      "Mar_26_2020 11:16:30"
c compilation_options                   "--std=c++17 -pedantic -fmax-errors=5 -Wall -Wextra -g -D_GLIBCXX_DEBUG"
c NDEBUG                                0
c OPTIMIZE                              0
c ** Parameters **
c command-line                          "./QBRG_debug" "a40 e40 a40 40" "264*1,1|2-2,1|3-3,1|4-4,1" "" "1,t" ""
c output                                "QuBlRaGe_160_264_1585242913253851813.qdimacs"
c options                               "filtered,renamed"
c num_quantifier_blocks                 4
c  quantifier_blocks                    1:a1-40 2:e41-80 3:a81-120 4:e121-160
c num_clause-blocks                     1
c  clause-blocks                        264 * {1-40,1,1/2} | {41-80,1,1/2} | {81-120,1,1/2} | {121-160,1,1/2}
c num_e-seeds                           37+2=39
c  e-seeds                              1 0 1 0 5 160 2 40 0 40 1 40 0 40 1 264 4 1 1 1 1 2 2 2 1 1 2 3 3 1 1 2 4 4 1 1 2 1 1585242913253851177
p cnf 160 264
a 1 2 3 4 5 6 7 8 9 10 11 12 13 14 15 16 17 18 19 20 21 22 23 24 25 26 27 28 29 30 31 32 33 34 35 36 37 38 39 40 0
e 41 42 43 44 45 46 47 48 49 50 51 52 53 54 55 56 57 58 59 60 61 62 63 64 65 66 67 68 69 70 71 72 73 74 75 76 77 78 79 80 0
a 81 82 83 84 85 86 87 88 89 90 91 92 93 94 95 96 97 98 99 100 101 102 103 104 105 106 107 108 109 110 111 112 113 114 115 116 117 118 119 120 0
e 121 122 123 124 125 126 127 128 129 130 131 132 133 134 135 136 137 138 139 140 141 142 143 144 145 146 147 148 149 150 151 152 153 154 155 156 157 158 159 160 0
40 43 -90 -121 0
-13 50 97 -121 0
-27 70 98 -121 0
-20 -52 -103 -121 0
-8 60 -103 -121 0
-4 -66 120 -121 0
-16 80 -89 121 0
21 63 -90 121 0
33 52 101 121 0
3 71 87 -122 0
-12 63 93 -122 0
38 41 -94 -122 0
-7 -75 -100 -122 0
-38 53 -105 -122 0
-6 73 120 -122 0
-10 59 -83 122 0
23 -46 -117 122 0
14 -64 98 -123 0
39 79 98 -123 0
18 -56 -87 123 0
23 -80 -91 123 0
-29 -53 91 123 0
-33 80 106 123 0
-22 -58 109 123 0
2 -58 116 123 0
-4 -80 84 -124 0
31 -46 97 -124 0
33 66 104 -124 0
9 -68 -106 -124 0
5 -68 118 -124 0
22 51 -85 124 0
28 74 -89 124 0
-34 -59 96 124 0
25 49 111 124 0
-16 -46 114 124 0
-21 -56 -90 -125 0
29 -46 101 -125 0
17 64 -98 125 0
28 47 -111 125 0
-7 -80 -114 125 0
-13 -66 -108 -126 0
30 -66 95 126 0
33 46 -103 126 0
26 -54 -105 126 0
25 42 82 -127 0
2 53 84 -127 0
30 -60 -88 -127 0
-31 76 90 -127 0
30 70 -92 -127 0
-12 78 94 -127 0
28 -47 -99 -127 0
2 80 -105 -127 0
34 -56 112 -127 0
9 -76 112 -127 0
11 -41 -83 -128 0
-26 -53 86 -128 0
9 -48 -91 -128 0
31 43 -112 -128 0
-12 -42 -96 128 0
-39 57 -104 128 0
-34 75 81 -129 0
-38 -45 91 -129 0
23 79 92 -129 0
8 -54 94 -129 0
-19 55 -83 129 0
22 75 106 129 0
13 68 -106 -130 0
20 -76 119 -130 0
11 51 89 130 0
-22 72 96 -131 0
6 44 -106 -131 0
-21 62 120 -131 0
19 74 89 -132 0
3 -78 100 -132 0
-29 58 111 -132 0
3 -51 114 -132 0
36 41 95 132 0
34 -73 99 132 0
-21 67 94 -133 0
32 48 98 -133 0
-19 56 -86 133 0
6 -67 -94 133 0
20 -74 -110 133 0
-4 51 88 -134 0
27 41 93 -134 0
-12 44 101 -134 0
6 47 104 -134 0
-9 66 120 -134 0
6 55 87 134 0
-35 -62 88 134 0
40 50 95 134 0
-8 -72 112 134 0
10 -53 -115 134 0
-17 -56 84 -135 0
-39 60 -93 -135 0
1 76 104 -135 0
-27 50 -85 135 0
38 41 -94 135 0
29 -62 -93 -136 0
-25 -42 103 -136 0
4 -67 -103 136 0
-33 -46 120 136 0
30 76 -89 -137 0
3 54 111 137 0
10 45 -86 -138 0
39 -44 -99 -138 0
-12 -72 -93 138 0
-12 -43 -92 -139 0
-40 49 -82 139 0
25 -46 -110 139 0
30 68 -113 139 0
-32 77 -119 139 0
-35 -41 -120 139 0
-38 42 83 -140 0
-7 67 -93 -140 0
-7 56 -109 -140 0
22 -57 -110 -140 0
31 -43 111 -140 0
32 59 -115 -140 0
-5 -58 -90 140 0
-19 -43 91 140 0
2 71 110 140 0
-32 73 82 -141 0
3 50 -84 -141 0
-24 64 91 -141 0
-2 61 92 -141 0
31 -79 110 -141 0
17 -77 -88 141 0
13 -44 109 141 0
-3 -42 -120 141 0
-21 -70 -82 142 0
15 68 -95 142 0
26 69 99 142 0
-32 68 -82 -143 0
-29 -44 119 -143 0
-35 -71 -96 143 0
18 -67 103 143 0
40 -62 104 143 0
32 51 109 144 0
35 -45 120 144 0
-4 52 89 -145 0
-30 78 98 -145 0
-20 70 101 -145 0
7 63 -105 -145 0
7 -65 -115 -145 0
7 -72 -115 -145 0
-20 -77 -116 -145 0
-5 74 -82 145 0
30 -61 -90 145 0
7 77 104 145 0
39 58 -117 145 0
-27 76 119 145 0
-35 -66 86 -146 0
-22 65 -90 -146 0
37 -79 102 -146 0
-35 -51 110 -146 0
-22 -48 83 146 0
-1 41 102 146 0
-6 -61 -106 146 0
-40 -59 -107 146 0
37 46 -118 146 0
-21 -63 120 146 0
40 80 88 -147 0
30 77 92 -147 0
-1 44 -111 -147 0
-10 51 92 147 0
24 51 95 147 0
31 69 102 147 0
23 50 116 147 0
19 -50 98 -148 0
-5 57 -100 -148 0
-15 -70 -100 -148 0
11 -49 -102 -148 0
-7 -68 -105 -148 0
-22 -65 -109 -148 0
11 76 -112 -148 0
38 47 117 -148 0
-24 68 81 148 0
5 -69 97 148 0
-13 -77 -113 148 0
-27 74 -120 148 0
-20 60 83 -149 0
39 46 86 -149 0
36 -60 -91 -149 0
39 -68 93 -149 0
9 70 -114 -149 0
20 -57 117 -149 0
14 57 89 149 0
-32 -55 91 149 0
33 42 92 149 0
-19 41 101 149 0
-35 70 101 149 0
16 -64 -81 -150 0
2 -58 92 -150 0
-36 65 97 -150 0
-20 58 90 150 0
35 54 104 150 0
28 59 -107 150 0
33 -45 -119 150 0
14 -53 111 -151 0
-10 -69 117 -151 0
31 -78 -119 -151 0
12 65 95 151 0
4 -63 -97 151 0
-21 79 -109 151 0
40 49 81 -152 0
33 44 91 -152 0
36 76 94 -152 0
1 -42 -99 -152 0
-31 -67 110 -152 0
22 -47 85 152 0
23 73 -101 152 0
-36 -48 -94 -153 0
-20 65 102 -153 0
-25 71 109 -153 0
-19 -41 114 -153 0
-17 -52 116 -153 0
-36 -67 117 -153 0
35 -79 94 153 0
-19 53 117 153 0
-22 -46 94 -154 0
-14 63 -96 -154 0
13 60 -101 -154 0
1 -52 103 -154 0
33 -47 109 -154 0
10 -75 92 154 0
34 -46 109 154 0
-27 41 -100 155 0
-7 46 118 155 0
3 -56 118 155 0
-1 76 -119 155 0
1 -61 105 -156 0
12 46 -114 -156 0
12 41 117 156 0
-10 -67 -120 156 0
2 64 -89 -157 0
-25 44 106 -157 0
-24 48 89 157 0
-9 -63 -91 157 0
36 -73 103 157 0
-23 -78 -86 -158 0
5 47 91 -158 0
24 -56 -92 158 0
-36 -45 -120 158 0
19 47 120 158 0
19 47 -81 -159 0
-36 -48 81 -159 0
-20 46 87 -159 0
-17 71 94 -159 0
20 60 108 -159 0
-11 46 113 -159 0
-24 44 -115 -159 0
36 -65 118 -159 0
-31 46 -92 159 0
-4 66 92 159 0
3 78 105 159 0
19 43 -117 159 0
-12 41 -82 -160 0
9 76 -85 -160 0
26 -46 -105 -160 0
-12 -61 -107 -160 0
34 76 -111 -160 0
-1 45 93 160 0
20 -48 119 160 0
